NAME : cgl_78.8985.tour
COMMENT : Length = 8985
COMMENT : Found by LKH-3 [Keld Helsgaun] Thu Jun 26 21:26:50 2025
TYPE : TOUR
DIMENSION : 79
TOUR_SECTION
34
30
16
17
18
20
23
24
22
26
21
19
28
27
29
25
35
38
37
36
39
40
42
41
43
56
45
55
44
50
60
52
47
57
49
53
48
59
54
46
51
58
61
12
14
15
13
8
6
1
7
11
5
9
10
4
3
2
72
76
71
69
70
75
73
74
78
68
66
64
65
67
62
63
77
79
33
32
31
-1
EOF
